c Standarized MaxSat Instance
c{
c "sha1sum": "bfb79263ee08c440e9f8ce4cec67e9d644d1c868",
c "nvars": 40,
c "ncls": 352,
c "nhards": 0,
c "nhard_len_stats":
c    { "min": 0, "max": 0, "ave": 0.00,
c      "stddev": 0.00 },
c "nsofts": 352,
c "nsoft_len_stats":
c    { "min": 2, "max": 2, "ave": 2.00,
c      "stddev": 0.00 },
c "nsoft_wts": 10,
c "soft_wt_stats":
c    { "min": 1, "max": 10, "ave": 5.63,
c      "stddev": 3.00 }
c}
c------------------------------------------------------------
c File  p_hat1000-1.clq
c
c Source: P. Soriano and M. Gendreau at  patrick@crt.umontreal.ca
c
c Reference: p-hat graphs are generated with the p-hat generator
c 	      which is a generalization of the classical uniform
c 	      random graph generator.
c 	      Graphs generated with p-hat have wider node degree spread
c 	      and larger cliques than uniform graphs.
c
c NOTE: September 23, 1993 Corrected corrupted file at DIMACS.
c
c
c Generation parameters: 
c 	n =   1000 a =  0.00  b =  0.50  Expected density =  0.25
c	Seed =      22013       Real density =  0.245
c
p wcnf 40 352 1983
9 1 4 0
9 -1 -4 0
4 1 5 0
4 -1 -5 0
8 1 12 0
8 -1 -12 0
8 1 17 0
8 -1 -17 0
10 1 21 0
10 -1 -21 0
2 1 31 0
2 -1 -31 0
4 1 33 0
4 -1 -33 0
8 2 5 0
8 -2 -5 0
3 2 12 0
3 -2 -12 0
6 3 5 0
6 -3 -5 0
5 3 10 0
5 -3 -10 0
7 3 12 0
7 -3 -12 0
4 3 17 0
4 -3 -17 0
6 3 18 0
6 -3 -18 0
10 3 19 0
10 -3 -19 0
10 3 20 0
10 -3 -20 0
7 3 23 0
7 -3 -23 0
8 3 28 0
8 -3 -28 0
2 3 30 0
2 -3 -30 0
7 3 33 0
7 -3 -33 0
1 3 35 0
1 -3 -35 0
3 3 38 0
3 -3 -38 0
2 3 39 0
2 -3 -39 0
9 3 40 0
9 -3 -40 0
2 4 6 0
2 -4 -6 0
5 4 7 0
5 -4 -7 0
2 4 10 0
2 -4 -10 0
2 4 18 0
2 -4 -18 0
10 4 19 0
10 -4 -19 0
3 4 22 0
3 -4 -22 0
6 4 35 0
6 -4 -35 0
9 4 39 0
9 -4 -39 0
7 5 6 0
7 -5 -6 0
3 5 8 0
3 -5 -8 0
7 5 11 0
7 -5 -11 0
6 5 12 0
6 -5 -12 0
5 5 14 0
5 -5 -14 0
10 5 15 0
10 -5 -15 0
3 5 16 0
3 -5 -16 0
8 5 17 0
8 -5 -17 0
6 5 22 0
6 -5 -22 0
8 5 23 0
8 -5 -23 0
5 5 26 0
5 -5 -26 0
9 5 27 0
9 -5 -27 0
3 5 30 0
3 -5 -30 0
4 5 33 0
4 -5 -33 0
9 5 36 0
9 -5 -36 0
10 5 39 0
10 -5 -39 0
1 5 40 0
1 -5 -40 0
10 6 7 0
10 -6 -7 0
6 6 8 0
6 -6 -8 0
1 6 12 0
1 -6 -12 0
2 6 14 0
2 -6 -14 0
7 6 21 0
7 -6 -21 0
9 6 23 0
9 -6 -23 0
4 6 25 0
4 -6 -25 0
1 6 30 0
1 -6 -30 0
1 6 31 0
1 -6 -31 0
5 6 32 0
5 -6 -32 0
1 6 34 0
1 -6 -34 0
3 6 37 0
3 -6 -37 0
10 6 40 0
10 -6 -40 0
10 7 16 0
10 -7 -16 0
9 7 32 0
9 -7 -32 0
3 8 25 0
3 -8 -25 0
6 8 31 0
6 -8 -31 0
4 8 32 0
4 -8 -32 0
8 8 33 0
8 -8 -33 0
6 9 17 0
6 -9 -17 0
7 9 18 0
7 -9 -18 0
6 9 19 0
6 -9 -19 0
1 9 25 0
1 -9 -25 0
5 10 19 0
5 -10 -19 0
10 10 25 0
10 -10 -25 0
10 10 26 0
10 -10 -26 0
8 10 27 0
8 -10 -27 0
3 10 29 0
3 -10 -29 0
8 10 30 0
8 -10 -30 0
7 10 32 0
7 -10 -32 0
4 10 33 0
4 -10 -33 0
7 10 35 0
7 -10 -35 0
2 10 36 0
2 -10 -36 0
5 11 12 0
5 -11 -12 0
9 11 13 0
9 -11 -13 0
9 11 18 0
9 -11 -18 0
4 11 22 0
4 -11 -22 0
3 11 28 0
3 -11 -28 0
9 12 23 0
9 -12 -23 0
4 12 25 0
4 -12 -25 0
7 12 29 0
7 -12 -29 0
10 12 31 0
10 -12 -31 0
6 12 32 0
6 -12 -32 0
7 12 33 0
7 -12 -33 0
9 12 36 0
9 -12 -36 0
5 13 20 0
5 -13 -20 0
10 13 26 0
10 -13 -26 0
4 13 31 0
4 -13 -31 0
9 14 15 0
9 -14 -15 0
7 14 19 0
7 -14 -19 0
10 14 21 0
10 -14 -21 0
5 14 27 0
5 -14 -27 0
3 14 29 0
3 -14 -29 0
10 14 30 0
10 -14 -30 0
10 14 31 0
10 -14 -31 0
2 14 35 0
2 -14 -35 0
9 14 36 0
9 -14 -36 0
7 15 16 0
7 -15 -16 0
5 15 21 0
5 -15 -21 0
7 16 21 0
7 -16 -21 0
3 16 24 0
3 -16 -24 0
8 17 19 0
8 -17 -19 0
4 17 20 0
4 -17 -20 0
5 17 22 0
5 -17 -22 0
3 17 25 0
3 -17 -25 0
2 17 27 0
2 -17 -27 0
3 17 33 0
3 -17 -33 0
6 17 36 0
6 -17 -36 0
5 17 38 0
5 -17 -38 0
2 18 21 0
2 -18 -21 0
10 18 24 0
10 -18 -24 0
2 18 25 0
2 -18 -25 0
2 18 31 0
2 -18 -31 0
5 18 33 0
5 -18 -33 0
8 18 34 0
8 -18 -34 0
10 18 35 0
10 -18 -35 0
10 18 36 0
10 -18 -36 0
7 18 38 0
7 -18 -38 0
4 19 22 0
4 -19 -22 0
8 19 33 0
8 -19 -33 0
4 19 34 0
4 -19 -34 0
3 19 38 0
3 -19 -38 0
3 20 21 0
3 -20 -21 0
6 20 30 0
6 -20 -30 0
3 20 31 0
3 -20 -31 0
2 21 33 0
2 -21 -33 0
8 21 35 0
8 -21 -35 0
2 21 36 0
2 -21 -36 0
8 21 37 0
8 -21 -37 0
2 22 25 0
2 -22 -25 0
8 22 37 0
8 -22 -37 0
1 22 38 0
1 -22 -38 0
10 22 39 0
10 -22 -39 0
1 23 24 0
1 -23 -24 0
6 23 35 0
6 -23 -35 0
2 24 30 0
2 -24 -30 0
3 24 34 0
3 -24 -34 0
8 24 37 0
8 -24 -37 0
8 25 29 0
8 -25 -29 0
7 25 30 0
7 -25 -30 0
10 25 32 0
10 -25 -32 0
7 25 34 0
7 -25 -34 0
8 25 38 0
8 -25 -38 0
1 25 39 0
1 -25 -39 0
2 26 28 0
2 -26 -28 0
6 26 31 0
6 -26 -31 0
1 26 32 0
1 -26 -32 0
1 27 32 0
1 -27 -32 0
3 27 33 0
3 -27 -33 0
5 27 40 0
5 -27 -40 0
9 28 33 0
9 -28 -33 0
6 28 36 0
6 -28 -36 0
8 29 30 0
8 -29 -30 0
1 29 31 0
1 -29 -31 0
2 30 35 0
2 -30 -35 0
10 30 36 0
10 -30 -36 0
3 31 35 0
3 -31 -35 0
9 31 40 0
9 -31 -40 0
2 32 33 0
2 -32 -33 0
10 32 34 0
10 -32 -34 0
1 32 36 0
1 -32 -36 0
9 32 40 0
9 -32 -40 0
1 33 35 0
1 -33 -35 0
1 34 38 0
1 -34 -38 0
10 34 40 0
10 -34 -40 0
6 35 36 0
6 -35 -36 0
2 35 40 0
2 -35 -40 0
